0 36 44
1 36 47
2 44 51
3 45 51
4 33 54
5 34 54
6 42 55
7 40 54
8 26 53
9 35 50
10 42 50
11 47 50
12 45 47
13 35 47
14 41 48
15 35 47
16 35 44
17 44 44
18 44 44
19 32 43
20 40 43
21 28 43
22 40 42
23 38 41
24 37 38
25 33 38
26 35 37
27 35 37
28 25 35
29 12 35
30 30 40
31 37 39
32 26 36
33 29 34
34 23 34
35 32 33
36 25 31
37 17 29
38 15 28
39 25 25
40 19 25
41 21 25
42 10 22
43 8 23
44 21 22
45 15 19
46 15 18
47 19 19
48 8 18
49 12 17
50 16 18
51 11 16
52 15 15
53 4 13
54 7 13
55 8 12
56 7 10
57 7 8
58 3 7
59 1 6
60 8 9
61 5 5
62 4 4
63 4 4
64 3 5
65 3 3

